QPLIB_2707
LCQ
minimize
634 # number of variables
617 # number of constraints
0.0 # default value for linear coefficients in objective
1 # number of non-default linear coefficients in objective
211 1.0
0.0 # objective constant
571 # number of quadratic terms in all constraints
152 32703 1027 -2.0
153 17965569 33 2.0
154 1 1 2.0
155 50 34 2.0
156 1 1 2.0
157 1818576901 1651076122 2.0
158 1852403556 32625 2.0
159 1768711012 1099344761 2.0
160 775173731 32703 2.0
161 1646292852 33 2.0
162 824209008 1 2.0
163 12321 50 2.0
164 1 1 2.0
165 1651076122 1 2.0
166 1852403556 1 2.0
167 1768711012 50 2.0
168 775173731 1 2.0
169 1651076122 1646292852 2.0
170 1852403556 824209008 2.0
171 1768711012 12321 2.0
172 775173731 1 2.0
173 1663070068 1 2.0
174 824206179 1 2.0
175 12321 50 2.0
176 1 1 2.0
177 1651076122 1 2.0
178 1852403556 1 2.0
179 1768711012 50 2.0
180 775173731 1 2.0
181 1663070068 1651076122 2.0
182 1852403556 824206179 2.0
183 1768711012 12321 2.0
184 775173731 1 2.0
185 1646292852 1 2.0
186 824209008 1 2.0
187 12321 50 2.0
188 1 1 2.0
189 1651076122 17956865 2.0
190 1852403556 1 2.0
191 1768711012 50 2.0
192 775173731 1 2.0
193 1651076122 1646292852 2.0
194 1852403556 824209008 2.0
195 1768711012 12321 2.0
196 775173731 1 2.0
197 1663070068 17956865 2.0
198 824206179 1 2.0
199 12321 50 2.0
200 1 1 2.0
201 1651076122 193 -2.0
202 1852403556 1 -2.0
203 1768711012 50 -2.0
204 775173731 1 -2.0
205 1663070068 1651076122 -2.0
206 1852403556 824206179 -2.0
207 1768711012 12321 -2.0
208 775173731 1 -2.0
209 1663070068 193 -2.0
210 824210800 1 -2.0
211 1099313185 50 -2.0
212 32703 1 -2.0
213 1651076122 1 -2.0
214 1852403556 1 -2.0
215 1768711012 50 -2.0
216 775173731 1 -2.0
217 1663070068 1651076122 -2.0
218 1852403556 824210800 -2.0
219 1768711012 1099313185 -2.0
220 775173731 32703 -2.0
221 1763733364 1 -2.0
222 824209265 1 -2.0
223 12321 50 -2.0
224 1 1 -2.0
225 1651076122 1 2.0
226 1852403556 1 2.0
227 1768711012 50 2.0
228 775173731 1 2.0
229 1763733364 1651076122 2.0
230 1852403556 824209265 2.0
231 1768711012 12321 2.0
232 775173731 1 2.0
233 1864396660 1 2.0
234 824205172 1 2.0
235 12321 50 2.0
236 1 1 2.0
237 1651076122 1 2.0
238 1852403556 1 2.0
239 1768711012 50 2.0
240 775173731 1 2.0
241 1864396660 1651076122 2.0
242 1852403556 824205172 2.0
243 1768711012 12321 2.0
244 775173731 1 2.0
245 1931505524 1 2.0
246 824209508 1 2.0
247 1099313441 50 2.0
248 32703 1 2.0
249 1651076122 385 2.0
250 1852403556 1 2.0
251 1768711012 50 2.0
252 775173731 1 2.0
253 1931505524 1651076121 2.0
254 1684959076 824209508 2.0
255 1651076196 1099313441 2.0
256 1932407863 32703 2.0
257 1868767344 385 2.0
258 540090479 1 2.0
259 50 50 2.0
260 1 1 2.0
261 1651076121 17965553 2.0
262 1684959076 1 2.0
263 1651076196 50 2.0
264 1932407863 1 2.0
265 1868767344 1651076121 2.0
266 1684959076 540090479 2.0
267 1651076196 50 2.0
268 1932407863 1 2.0
269 1868767344 17965553 2.0
270 540090479 1 2.0
271 1099330098 50 2.0
272 32703 1 2.0
273 1651076121 481 2.0
274 1684959076 1 2.0
275 1651076196 50 2.0
276 1932407863 1 2.0
277 1868767344 1651076121 2.0
278 1681157988 540090479 2.0
279 1651076196 1099330098 2.0
280 1932407863 32703 2.0
281 1868767344 481 2.0
282 540090421 1 2.0
283 2097 50 2.0
284 1 1 2.0
285 1651076121 17984401 2.0
286 1681157988 1 2.0
287 1651076196 50 2.0
288 1932407863 1 2.0
289 1868767344 1651076121 2.0
290 1684959076 540090421 2.0
291 1651076196 2097 2.0
292 1932407863 1 2.0
293 1868767344 17984401 2.0
294 540090479 1 2.0
295 50 50 2.0
296 1 1 2.0
297 1651076121 1099344889 2.0
298 1684959076 32703 2.0
299 1651076196 50 2.0
300 1932407863 1 2.0
301 1868767344 1651076121 2.0
302 1684305508 540090479 2.0
303 1651076196 50 2.0
304 1932407863 1 2.0
305 1986207856 1099344889 2.0
306 540090469 32703 2.0
307 17967153 50 2.0
308 1 1 2.0
309 1651076121 17984417 2.0
310 1684305508 1 2.0
311 1651076196 50 2.0
312 1932407863 1 2.0
313 1986207856 1651076122 2.0
314 1852403556 540090469 2.0
315 1768711012 17967153 2.0
316 775173731 1 2.0
317 1663070068 17984417 2.0
318 824210800 1 2.0
319 17969185 50 2.0
320 1 1 2.0
321 1651076122 17986577 2.0
322 1852403556 1 2.0
323 1768711012 34 2.0
324 775173731 1 2.0
325 1663070068 1085184193 2.0
326 824210800 32703 2.0
327 17969185 17947553 2.0
328 1 1 2.0
329 17986577 1 2.0
330 1 1 2.0
331 34 34 2.0
332 1 1 2.0
333 -2147483648 1085184193 2.0
334 -2147483648 32703 2.0
335 17947553 1 2.0
336 1 1 2.0
337 1 1 2.0
338 1 1 2.0
339 1042 34 2.0
340 1 1 2.0
341 -2147483648 17984417 2.0
342 -2147483648 1 2.0
343 17986913 1 2.0
344 1 1 2.0
345 17991873 1 2.0
346 1 1 2.0
347 17996833 1042 2.0
348 1 1 2.0
349 18001793 17984417 2.0
350 1 1 2.0
351 18004289 17986913 2.0
352 1 1 2.0
353 18006785 17991873 2.0
354 1 1 2.0
355 18013265 17996833 2.0
356 1 1 2.0
357 18018225 18001793 2.0
358 1 1 2.0
359 18020721 18004289 2.0
360 1 1 2.0
361 18023217 18006785 2.0
362 1 1 2.0
363 18025713 18013265 2.0
364 1 1 2.0
365 18028209 18018225 2.0
366 1 1 2.0
367 18030705 18020721 2.0
368 1 1 2.0
369 18033201 18023217 2.0
370 1 1 2.0
371 18035697 18025713 2.0
372 1 1 2.0
373 18040657 18028209 2.0
374 1 1 2.0
375 18045617 18030705 2.0
376 1 1 2.0
377 18050577 18033201 2.0
378 1 1 2.0
379 18055537 18035697 2.0
380 1 1 2.0
381 18060497 18040657 2.0
382 1 1 2.0
383 18063057 18045617 2.0
384 1 1 2.0
385 18068161 18050577 2.0
386 1 1 2.0
387 18073265 18055537 2.0
388 1 1 2.0
389 18078369 18060497 2.0
390 1 1 2.0
391 18083473 18063057 2.0
392 1 1 2.0
393 18086033 18068161 2.0
394 1 1 2.0
395 18088593 18073265 2.0
396 1 1 2.0
397 18091153 18078369 2.0
398 1 1 2.0
399 18096257 18083473 2.0
400 1 1 2.0
401 18101361 18086033 2.0
402 1 1 2.0
403 18106465 18088593 2.0
404 1 1 2.0
405 18111569 18091153 2.0
406 1 1 2.0
407 18114129 18096257 2.0
408 1 1 2.0
409 18116689 18101361 2.0
410 1 1 2.0
411 18119249 18106465 2.0
412 1 1 2.0
413 18121809 18111569 2.0
414 1 1 2.0
415 18124369 18114129 2.0
416 1 1 2.0
417 18129473 18116689 2.0
418 1 1 2.0
419 18134577 18119249 2.0
420 1 1 2.0
421 18665153 18121809 2.0
422 1 1 2.0
423 18124369 17966897 2.0
424 1 1 2.0
425 18684209 18129473 2.0
426 1 1 2.0
427 18704033 18134577 2.0
428 1 1 2.0
429 18708993 18665153 -2.0
430 1 1 -2.0
431 18713953 17966897 -2.0
432 1 1 -2.0
433 18718913 18684209 -2.0
434 1 1 -2.0
435 18723873 18704033 -2.0
436 1 1 -2.0
437 18728977 18708993 -2.0
438 1 1 -2.0
439 18739169 18713953 -2.0
440 1 1 -2.0
441 18744273 18718913 -2.0
442 1 1 -2.0
443 18751937 18723873 -2.0
444 1 1 -2.0
445 18751937 18728977 -2.0
446 1 1 -2.0
447 18739169 1 -2.0
448 1 1 -2.0
449 18744273 1 -2.0
450 1 1 -2.0
451 18751937 17966385 -2.0
452 1 1 -2.0
453 18751937 0 -2.0
454 1 0 -2.0
455 17966497 1 -2.0
456 1 1 -2.0
457 17966401 1 -2.0
458 1 1 -2.0
459 17966385 1 -2.0
460 1 1 -2.0
461 17966465 0 -2.0
462 1 0 -2.0
463 17966497 2112 -2.0
464 6 1 -2.0
465 17966401 0 -2.0
466 257 1 -2.0
467 16777217 1 -2.0
468 16777217 1 -2.0
469 17966465 16843010 -2.0
470 258 1 -2.0
471 1099339489 2112 -2.0
472 32703 6 -2.0
473 1 0 -2.0
474 257 1 -2.0
475 16777217 1 -2.0
476 16777217 1 -2.0
477 16843010 1 -2.0
478 258 1 -2.0
479 1099339489 1 -2.0
480 32703 1 -2.0
481 1 1 -2.0
482 1 1 -2.0
483 1 1 -2.0
484 1 1 -2.0
485 1 1 -2.0
486 1 1 -2.0
487 1 1 -2.0
488 1 1 -2.0
489 1 1 -2.0
490 1 1 -2.0
491 1 1 -2.0
492 1 1 -2.0
493 1 1 -2.0
494 1 1 -2.0
495 1 1 -2.0
496 1 1 -2.0
497 1 1 -2.0
498 1 1 -2.0
499 33 1 -2.0
500 1 1 -2.0
501 17966817 1 -2.0
502 1 1 -2.0
503 1970417268 1 -2.0
504 32623 1 -2.0
505 1 1 -2.0
506 1 1 -2.0
507 34 33 -2.0
508 1 1 -2.0
509 17988593 17966817 -2.0
510 1 1 -2.0
511 1970417268 1099344761 -2.0
512 32703 32623 -2.0
513 705 1 -2.0
514 1 1 -2.0
515 49 34 -2.0
516 1 1 -2.0
517 17988593 17967553 -2.0
518 1 1 -2.0
519 1651076196 1099344761 -2.0
520 1932407863 32703 -2.0
521 1851859056 705 -2.0
522 540090485 1 -2.0
523 49 49 -2.0
524 1 1 -2.0
525 540090418 17967553 -2.0
526 540024882 1 -2.0
527 1651076196 962 -2.0
528 1932407863 1 -2.0
529 1851859056 1099344761 -2.0
530 540090485 32703 -2.0
531 17984401 49 -2.0
532 1 1 -2.0
533 540090418 1 -2.0
534 540024882 1 -2.0
535 962 1 -2.0
536 1 1 -2.0
537 1099344761 1 -2.0
538 32703 1 -2.0
539 17984401 1 -2.0
540 1 1 -2.0
541 1 1 -2.0
542 1 1 -2.0
543 1 1 -2.0
544 1 1 -2.0
545 1 1 -2.0
546 1 1 -2.0
547 17966865 1 -2.0
548 1 1 -2.0
549 17966897 1 -2.0
550 1 1 -2.0
551 1 1 -2.0
552 1 1 -2.0
553 561 1 -2.0
554 1 1 -2.0
555 17966865 225 -2.0
556 1 1 -2.0
557 1347174665 17966897 -2.0
558 1128612169 1 -2.0
559 81 1 -2.0
560 1 1 -2.0
561 561 1 -2.0
562 1 1 -2.0
563 225 1 -2.0
564 1 1 -2.0
565 1347174665 1 -2.0
566 1128612169 1 -2.0
567 81 1 -2.0
568 1 1 -2.0
569 1 1 -2.0
570 1 1 -2.0
571 1 1 -2.0
572 1 1 -2.0
573 1 1 2.0
573 1 1 -4.0
573 1 1 2.0
573 1 1 -4.0
573 1 1 2.0
573 1 1 2.0
574 1 1 2.0
574 1 1 -4.0
574 1 1 2.0
574 1 1 -4.0
574 1 1 2.0
574 1 1 2.0
575 17964945 1 2.0
575 17964945 1 -4.0
575 17964945 1 2.0
575 17964945 1 -4.0
575 17964945 1 2.0
575 17964945 1 2.0
576 1 1 2.0
576 1 1 -4.0
576 1 1 2.0
576 1 1 -4.0
576 1 1 2.0
576 1 1 2.0
577 17967089 1 2.0
577 17967089 1 -4.0
577 17967089 1 2.0
577 17967089 1 -4.0
577 17967089 1 2.0
577 17967089 1 2.0
578 1 1 2.0
578 1 1 -4.0
578 1 1 2.0
578 1 1 -4.0
578 1 1 2.0
578 1 1 2.0
579 1 1 2.0
579 1 1 -4.0
579 1 1 2.0
579 1 1 -4.0
579 1 1 2.0
579 1 1 2.0
580 1 1 2.0
580 1 1 -4.0
580 1 1 2.0
580 1 1 -4.0
580 1 1 2.0
580 1 1 2.0
581 1 1 2.0
581 1 1 -4.0
581 1 1 2.0
581 1 1 -4.0
581 1 1 2.0
581 1 1 2.0
582 1 1 2.0
582 1 1 -4.0
582 1 1 2.0
582 1 1 -4.0
582 1 1 2.0
582 1 1 2.0
583 17964945 112 2.0
583 17964945 112 -4.0
583 17964945 112 2.0
583 17964945 112 -4.0
583 17964945 112 2.0
583 17964945 112 2.0
584 6 1 2.0
584 6 1 -4.0
584 6 1 2.0
584 6 1 -4.0
584 6 1 2.0
584 6 1 2.0
585 17967089 2 2.0
585 17967089 2 -4.0
585 17967089 2 2.0
585 17967089 2 -4.0
585 17967089 2 2.0
585 17967089 2 2.0
586 1 1 2.0
586 1 1 -4.0
586 1 1 2.0
586 1 1 -4.0
586 1 1 2.0
586 1 1 2.0
587 1 1 2.0
587 1 1 -4.0
587 1 1 2.0
587 1 1 -4.0
587 1 1 2.0
587 1 1 2.0
588 1 1 2.0
588 1 1 2.0
589 65537 1 2.0
589 65537 1 2.0
590 2 1 2.0
590 2 1 2.0
591 112 1 2.0
591 112 1 2.0
592 6 1 2.0
592 6 1 2.0
593 2 1 2.0
593 2 1 2.0
594 1 1 2.0
594 1 1 2.0
595 1 1 2.0
595 1 1 2.0
596 1 1 2.0
596 1 1 2.0
597 65537 1 2.0
597 65537 1 2.0
598 2 1 2.0
598 2 1 2.0
599 642 1 2.0
599 642 1 2.0
600 1 1 2.0
600 1 1 2.0
601 16843145 1 2.0
601 16843145 1 2.0
602 16843010 1 2.0
602 16843010 1 2.0
603 16843010 1 2.0
603 16843010 1 2.0
604 16843010 1 2.0
604 16843010 1 2.0
605 16843010 1 2.0
605 16843010 1 2.0
606 16843010 1 2.0
606 16843010 1 2.0
607 16843010 642 2.0
607 16843010 642 2.0
608 16843010 1 2.0
608 16843010 1 2.0
609 16843145 16843010 2.0
609 16843145 16843010 2.0
610 16843010 16843010 2.0
610 16843010 16843010 2.0
611 16843010 16843010 2.0
611 16843010 16843010 2.0
612 16843010 16843010 2.0
612 16843010 16843010 2.0
613 16843010 16843010 2.0
613 16843010 16843010 2.0
614 16843010 16843010 2.0
614 16843010 16843010 2.0
615 16843010 16843010 2.0
615 16843010 16843010 2.0
616 16843010 16843010 2.0
616 16843010 16843010 2.0
617 16843010 16843010 2.0
617 16843010 16843010 2.0
1209 # number of linear terms in all constraints
1 211 1.0
1 446 -1.0
2 447 1.0
2 448 -1.0
3 449 1.0
3 450 -1.0
4 448 -1.0
4 451 1.0
5 450 -1.0
5 452 1.0
6 448 -1.0
6 453 1.0
7 450 -1.0
7 454 1.0
8 448 -1.0
8 455 1.0
9 450 -1.0
9 456 1.0
10 448 -1.0
10 457 1.0
11 450 -1.0
11 458 1.0
12 448 -1.0
12 459 1.0
13 450 -1.0
13 460 1.0
14 448 -1.0
14 461 1.0
15 450 -1.0
15 462 1.0
16 448 -1.0
16 463 1.0
17 450 -1.0
17 464 1.0
18 448 -1.0
18 465 1.0
19 450 -1.0
19 466 1.0
20 448 -1.0
20 467 1.0
21 450 -1.0
21 468 1.0
22 448 -1.0
22 469 1.0
23 450 -1.0
23 470 1.0
24 448 -1.0
24 471 1.0
25 450 -1.0
25 472 1.0
26 448 -1.0
26 473 1.0
27 450 -1.0
27 474 1.0
28 448 -1.0
28 475 1.0
29 450 -1.0
29 476 1.0
30 448 -1.0
30 477 1.0
31 450 -1.0
31 478 1.0
32 448 -1.0
32 479 1.0
33 450 -1.0
33 480 1.0
34 448 -1.0
34 481 1.0
35 450 -1.0
35 482 1.0
36 448 -1.0
36 483 1.0
37 450 -1.0
37 484 1.0
38 461 1.0
38 463 -1.0
38 485 1.0
39 462 1.0
39 464 -1.0
39 486 1.0
40 463 1.0
40 465 -1.0
40 487 1.0
41 464 1.0
41 466 -1.0
41 488 1.0
42 465 1.0
42 467 -1.0
42 489 1.0
43 466 1.0
43 468 -1.0
43 490 1.0
44 461 -1.0
44 467 2.0
44 491 1.0
44 492 -1.0
45 462 -1.0
45 468 2.0
45 493 1.0
45 494 -1.0
46 469 1.0
46 471 -1.0
46 495 1.0
47 470 1.0
47 472 -1.0
47 496 1.0
48 471 1.0
48 473 -1.0
48 497 1.0
49 472 1.0
49 474 -1.0
49 498 1.0
50 473 1.0
50 475 -1.0
50 499 1.0
51 474 1.0
51 476 -1.0
51 500 1.0
52 469 -1.0
52 475 2.0
52 501 1.0
52 502 -1.0
53 470 -1.0
53 476 2.0
53 503 1.0
53 504 -1.0
54 477 1.0
54 479 -1.0
54 505 1.0
55 478 1.0
55 480 -1.0
55 506 1.0
56 479 1.0
56 481 -1.0
56 507 1.0
57 480 1.0
57 482 -1.0
57 508 1.0
58 481 1.0
58 483 -1.0
58 509 1.0
59 482 1.0
59 484 -1.0
59 510 1.0
60 477 -1.0
60 483 2.0
60 511 1.0
60 512 -1.0
61 478 -1.0
61 484 2.0
61 513 1.0
61 514 -1.0
62 485 1.0
62 489 1.0
63 486 1.0
63 490 1.0
64 487 1.0
64 491 1.0
65 488 1.0
65 493 1.0
66 495 1.0
66 499 1.0
67 496 1.0
67 500 1.0
68 497 1.0
68 501 1.0
69 498 1.0
69 503 1.0
70 505 1.0
70 509 1.0
71 506 1.0
71 510 1.0
72 507 1.0
72 511 1.0
73 508 1.0
73 513 1.0
74 515 -1.0
74 516 1.0
75 517 -1.0
75 518 1.0
76 519 -1.0
76 520 1.0
77 521 1.0
77 522 1.0
78 523 1.0
78 524 1.0
79 525 1.0
79 526 1.0
80 527 -1.0
80 528 1.0
81 529 -1.0
81 530 1.0
82 531 -1.0
82 532 1.0
83 533 -1.0
83 534 1.0
84 535 -1.0
84 536 1.0
85 537 -1.0
85 538 1.0
86 539 -1.0
86 540 1.0
87 541 -1.0
87 542 1.0
88 543 -1.0
88 544 1.0
89 545 -1.0
89 546 1.0
90 547 -1.0
90 548 1.0
91 549 -1.0
91 550 1.0
92 551 -1.0
92 552 1.0
93 553 -1.0
93 554 1.0
94 555 -1.0
94 556 1.0
95 557 -1.0
95 558 1.0
96 559 -1.0
96 560 1.0
97 561 -1.0
97 562 1.0
98 563 1.0
98 564 1.0
99 565 1.0
99 566 1.0
100 567 1.0
100 568 1.0
101 569 1.0
101 570 1.0
102 571 1.0
102 572 1.0
103 573 1.0
103 574 1.0
104 575 1.0
104 576 1.0
105 577 1.0
105 578 1.0
106 579 1.0
106 580 1.0
107 581 1.0
107 582 1.0
108 583 1.0
108 584 1.0
109 585 1.0
109 586 1.0
110 587 1.0
110 588 1.0
111 589 1.0
111 590 1.0
112 591 1.0
112 592 1.0
113 593 1.0
113 594 1.0
114 595 1.0
114 596 1.0
115 597 1.0
115 598 1.0
116 528 1.2
116 599 1.0
117 564 1.2
117 600 1.0
118 530 0.6
118 601 1.0
119 566 0.6
119 602 1.0
120 532 0.8
120 603 1.0
121 568 0.8
121 604 1.0
122 534 1.7
122 605 1.0
123 570 1.7
123 606 1.0
124 536 1.3
124 607 1.0
125 572 1.3
125 608 1.0
126 538 0.5
126 609 1.0
127 574 0.5
127 610 1.0
128 540 1.2
128 611 1.0
129 576 1.2
129 612 1.0
130 542 0.6
130 613 1.0
131 578 0.6
131 614 1.0
132 544 0.8
132 615 1.0
133 580 0.8
133 616 1.0
134 546 1.7
134 617 1.0
135 582 1.7
135 618 1.0
136 548 1.3
136 619 1.0
137 584 1.3
137 620 1.0
138 550 0.5
138 621 1.0
139 586 0.5
139 622 1.0
140 552 1.2
140 623 1.0
141 588 1.2
141 624 1.0
142 554 0.6
142 625 1.0
143 590 0.6
143 626 1.0
144 556 0.8
144 627 1.0
145 592 0.8
145 628 1.0
146 558 1.7
146 629 1.0
147 594 1.7
147 630 1.0
148 560 1.3
148 631 1.0
149 596 1.3
149 632 1.0
150 562 0.5
150 633 1.0
151 598 0.5
151 634 1.0
152 446 1.0
153 212 1.0
153 213 1.0
153 461 -1.0
154 214 1.0
154 215 1.0
154 462 -1.0
155 212 1.0
155 216 1.0
155 463 -1.0
156 214 1.0
156 217 1.0
156 464 -1.0
157 212 1.0
157 218 1.0
157 465 -1.0
158 214 1.0
158 219 1.0
158 466 -1.0
159 212 1.0
159 220 1.0
159 467 -1.0
160 214 1.0
160 221 1.0
160 468 -1.0
161 222 1.0
161 223 1.0
161 461 -1.0
162 224 1.0
162 225 1.0
162 462 -1.0
163 222 1.0
163 226 1.0
163 463 -1.0
164 224 1.0
164 227 1.0
164 464 -1.0
165 222 1.0
165 228 1.0
165 465 -1.0
166 224 1.0
166 229 1.0
166 466 -1.0
167 222 1.0
167 230 1.0
167 467 -1.0
168 224 1.0
168 231 1.0
168 468 -1.0
169 232 1.0
169 233 1.0
169 469 -1.0
170 234 1.0
170 235 1.0
170 470 -1.0
171 232 1.0
171 236 1.0
171 471 -1.0
172 234 1.0
172 237 1.0
172 472 -1.0
173 232 1.0
173 238 1.0
173 473 -1.0
174 234 1.0
174 239 1.0
174 474 -1.0
175 232 1.0
175 240 1.0
175 475 -1.0
176 234 1.0
176 241 1.0
176 476 -1.0
177 212 1.0
177 242 1.0
177 469 -1.0
178 214 1.0
178 243 1.0
178 470 -1.0
179 212 1.0
179 244 1.0
179 471 -1.0
180 214 1.0
180 245 1.0
180 472 -1.0
181 212 1.0
181 246 1.0
181 473 -1.0
182 214 1.0
182 247 1.0
182 474 -1.0
183 212 1.0
183 248 1.0
183 475 -1.0
184 214 1.0
184 249 1.0
184 476 -1.0
185 222 1.0
185 250 1.0
185 477 -1.0
186 224 1.0
186 251 1.0
186 478 -1.0
187 222 1.0
187 252 1.0
187 479 -1.0
188 224 1.0
188 253 1.0
188 480 -1.0
189 222 1.0
189 254 1.0
189 481 -1.0
190 224 1.0
190 255 1.0
190 482 -1.0
191 222 1.0
191 256 1.0
191 483 -1.0
192 224 1.0
192 257 1.0
192 484 -1.0
193 232 1.0
193 258 1.0
193 477 -1.0
194 234 1.0
194 259 1.0
194 478 -1.0
195 232 1.0
195 260 1.0
195 479 -1.0
196 234 1.0
196 261 1.0
196 480 -1.0
197 232 1.0
197 262 1.0
197 481 -1.0
198 234 1.0
198 263 1.0
198 482 -1.0
199 232 1.0
199 264 1.0
199 483 -1.0
200 234 1.0
200 265 1.0
200 484 -1.0
201 213 1.0
202 215 1.0
203 216 1.0
204 217 1.0
205 218 1.0
206 219 1.0
207 220 1.0
208 221 1.0
209 223 1.0
210 225 1.0
211 226 1.0
212 227 1.0
213 228 1.0
214 229 1.0
215 230 1.0
216 231 1.0
217 233 1.0
218 235 1.0
219 236 1.0
220 237 1.0
221 238 1.0
222 239 1.0
223 240 1.0
224 241 1.0
225 242 1.0
226 243 1.0
227 244 1.0
228 245 1.0
229 246 1.0
230 247 1.0
231 248 1.0
232 249 1.0
233 250 1.0
234 251 1.0
235 252 1.0
236 253 1.0
237 254 1.0
238 255 1.0
239 256 1.0
240 257 1.0
241 258 1.0
242 259 1.0
243 260 1.0
244 261 1.0
245 262 1.0
246 263 1.0
247 264 1.0
248 265 1.0
249 266 1.0
249 267 1.0
249 461 -1.0
250 268 1.0
250 269 1.0
250 462 -1.0
251 266 1.0
251 270 1.0
251 463 -1.0
252 268 1.0
252 271 1.0
252 464 -1.0
253 266 1.0
253 272 1.0
253 465 -1.0
254 268 1.0
254 273 1.0
254 466 -1.0
255 266 1.0
255 274 1.0
255 467 -1.0
256 268 1.0
256 275 1.0
256 468 -1.0
257 276 1.0
257 277 1.0
257 461 -1.0
258 278 1.0
258 279 1.0
258 462 -1.0
259 276 1.0
259 280 1.0
259 463 -1.0
260 278 1.0
260 281 1.0
260 464 -1.0
261 276 1.0
261 282 1.0
261 465 -1.0
262 278 1.0
262 283 1.0
262 466 -1.0
263 276 1.0
263 284 1.0
263 467 -1.0
264 278 1.0
264 285 1.0
264 468 -1.0
265 286 1.0
265 287 1.0
265 461 -1.0
266 288 1.0
266 289 1.0
266 462 -1.0
267 286 1.0
267 290 1.0
267 463 -1.0
268 288 1.0
268 291 1.0
268 464 -1.0
269 286 1.0
269 292 1.0
269 465 -1.0
270 288 1.0
270 293 1.0
270 466 -1.0
271 286 1.0
271 294 1.0
271 467 -1.0
272 288 1.0
272 295 1.0
272 468 -1.0
273 296 1.0
273 297 1.0
273 461 -1.0
274 298 1.0
274 299 1.0
274 462 -1.0
275 296 1.0
275 300 1.0
275 463 -1.0
276 298 1.0
276 301 1.0
276 464 -1.0
277 296 1.0
277 302 1.0
277 465 -1.0
278 298 1.0
278 303 1.0
278 466 -1.0
279 296 1.0
279 304 1.0
279 467 -1.0
280 298 1.0
280 305 1.0
280 468 -1.0
281 306 1.0
281 307 1.0
281 461 -1.0
282 308 1.0
282 309 1.0
282 462 -1.0
283 306 1.0
283 310 1.0
283 463 -1.0
284 308 1.0
284 311 1.0
284 464 -1.0
285 306 1.0
285 312 1.0
285 465 -1.0
286 308 1.0
286 313 1.0
286 466 -1.0
287 306 1.0
287 314 1.0
287 467 -1.0
288 308 1.0
288 315 1.0
288 468 -1.0
289 316 1.0
289 317 1.0
289 461 -1.0
290 318 1.0
290 319 1.0
290 462 -1.0
291 316 1.0
291 320 1.0
291 463 -1.0
292 318 1.0
292 321 1.0
292 464 -1.0
293 316 1.0
293 322 1.0
293 465 -1.0
294 318 1.0
294 323 1.0
294 466 -1.0
295 316 1.0
295 324 1.0
295 467 -1.0
296 318 1.0
296 325 1.0
296 468 -1.0
297 326 1.0
297 327 1.0
297 469 -1.0
298 328 1.0
298 329 1.0
298 470 -1.0
299 326 1.0
299 330 1.0
299 471 -1.0
300 328 1.0
300 331 1.0
300 472 -1.0
301 326 1.0
301 332 1.0
301 473 -1.0
302 328 1.0
302 333 1.0
302 474 -1.0
303 326 1.0
303 334 1.0
303 475 -1.0
304 328 1.0
304 335 1.0
304 476 -1.0
305 336 1.0
305 337 1.0
305 469 -1.0
306 338 1.0
306 339 1.0
306 470 -1.0
307 336 1.0
307 340 1.0
307 471 -1.0
308 338 1.0
308 341 1.0
308 472 -1.0
309 336 1.0
309 342 1.0
309 473 -1.0
310 338 1.0
310 343 1.0
310 474 -1.0
311 336 1.0
311 344 1.0
311 475 -1.0
312 338 1.0
312 345 1.0
312 476 -1.0
313 346 1.0
313 347 1.0
313 469 -1.0
314 348 1.0
314 349 1.0
314 470 -1.0
315 346 1.0
315 350 1.0
315 471 -1.0
316 348 1.0
316 351 1.0
316 472 -1.0
317 346 1.0
317 352 1.0
317 473 -1.0
318 348 1.0
318 353 1.0
318 474 -1.0
319 346 1.0
319 354 1.0
319 475 -1.0
320 348 1.0
320 355 1.0
320 476 -1.0
321 356 1.0
321 357 1.0
321 469 -1.0
322 358 1.0
322 359 1.0
322 470 -1.0
323 356 1.0
323 360 1.0
323 471 -1.0
324 358 1.0
324 361 1.0
324 472 -1.0
325 356 1.0
325 362 1.0
325 473 -1.0
326 358 1.0
326 363 1.0
326 474 -1.0
327 356 1.0
327 364 1.0
327 475 -1.0
328 358 1.0
328 365 1.0
328 476 -1.0
329 366 1.0
329 367 1.0
329 469 -1.0
330 368 1.0
330 369 1.0
330 470 -1.0
331 366 1.0
331 370 1.0
331 471 -1.0
332 368 1.0
332 371 1.0
332 472 -1.0
333 366 1.0
333 372 1.0
333 473 -1.0
334 368 1.0
334 373 1.0
334 474 -1.0
335 366 1.0
335 374 1.0
335 475 -1.0
336 368 1.0
336 375 1.0
336 476 -1.0
337 376 1.0
337 377 1.0
337 469 -1.0
338 378 1.0
338 379 1.0
338 470 -1.0
339 376 1.0
339 380 1.0
339 471 -1.0
340 378 1.0
340 381 1.0
340 472 -1.0
341 376 1.0
341 382 1.0
341 473 -1.0
342 378 1.0
342 383 1.0
342 474 -1.0
343 376 1.0
343 384 1.0
343 475 -1.0
344 378 1.0
344 385 1.0
344 476 -1.0
345 386 1.0
345 387 1.0
345 477 -1.0
346 388 1.0
346 389 1.0
346 478 -1.0
347 386 1.0
347 390 1.0
347 479 -1.0
348 388 1.0
348 391 1.0
348 480 -1.0
349 386 1.0
349 392 1.0
349 481 -1.0
350 388 1.0
350 393 1.0
350 482 -1.0
351 386 1.0
351 394 1.0
351 483 -1.0
352 388 1.0
352 395 1.0
352 484 -1.0
353 396 1.0
353 397 1.0
353 477 -1.0
354 398 1.0
354 399 1.0
354 478 -1.0
355 396 1.0
355 400 1.0
355 479 -1.0
356 398 1.0
356 401 1.0
356 480 -1.0
357 396 1.0
357 402 1.0
357 481 -1.0
358 398 1.0
358 403 1.0
358 482 -1.0
359 396 1.0
359 404 1.0
359 483 -1.0
360 398 1.0
360 405 1.0
360 484 -1.0
361 406 1.0
361 407 1.0
361 477 -1.0
362 408 1.0
362 409 1.0
362 478 -1.0
363 406 1.0
363 410 1.0
363 479 -1.0
364 408 1.0
364 411 1.0
364 480 -1.0
365 406 1.0
365 412 1.0
365 481 -1.0
366 408 1.0
366 413 1.0
366 482 -1.0
367 406 1.0
367 414 1.0
367 483 -1.0
368 408 1.0
368 415 1.0
368 484 -1.0
369 416 1.0
369 417 1.0
369 477 -1.0
370 418 1.0
370 419 1.0
370 478 -1.0
371 416 1.0
371 420 1.0
371 479 -1.0
372 418 1.0
372 421 1.0
372 480 -1.0
373 416 1.0
373 422 1.0
373 481 -1.0
374 418 1.0
374 423 1.0
374 482 -1.0
375 416 1.0
375 424 1.0
375 483 -1.0
376 418 1.0
376 425 1.0
376 484 -1.0
377 426 1.0
377 427 1.0
377 477 -1.0
378 428 1.0
378 429 1.0
378 478 -1.0
379 426 1.0
379 430 1.0
379 479 -1.0
380 428 1.0
380 431 1.0
380 480 -1.0
381 426 1.0
381 432 1.0
381 481 -1.0
382 428 1.0
382 433 1.0
382 482 -1.0
383 426 1.0
383 434 1.0
383 483 -1.0
384 428 1.0
384 435 1.0
384 484 -1.0
385 436 1.0
385 437 1.0
385 477 -1.0
386 438 1.0
386 439 1.0
386 478 -1.0
387 436 1.0
387 440 1.0
387 479 -1.0
388 438 1.0
388 441 1.0
388 480 -1.0
389 436 1.0
389 442 1.0
389 481 -1.0
390 438 1.0
390 443 1.0
390 482 -1.0
391 436 1.0
391 444 1.0
391 483 -1.0
392 438 1.0
392 445 1.0
392 484 -1.0
393 266 1.0
393 447 -1.0
393 599 1.0
394 268 1.0
394 449 -1.0
394 600 1.0
395 276 1.0
395 451 -1.0
395 601 1.0
396 278 1.0
396 452 -1.0
396 602 1.0
397 286 1.0
397 453 -1.0
397 603 1.0
398 288 1.0
398 454 -1.0
398 604 1.0
399 296 1.0
399 455 -1.0
399 605 1.0
400 298 1.0
400 456 -1.0
400 606 1.0
401 306 1.0
401 457 -1.0
401 607 1.0
402 308 1.0
402 458 -1.0
402 608 1.0
403 316 1.0
403 459 -1.0
403 609 1.0
404 318 1.0
404 460 -1.0
404 610 1.0
405 326 1.0
405 447 -1.0
405 611 1.0
406 328 1.0
406 449 -1.0
406 612 1.0
407 336 1.0
407 451 -1.0
407 613 1.0
408 338 1.0
408 452 -1.0
408 614 1.0
409 346 1.0
409 453 -1.0
409 615 1.0
410 348 1.0
410 454 -1.0
410 616 1.0
411 356 1.0
411 455 -1.0
411 617 1.0
412 358 1.0
412 456 -1.0
412 618 1.0
413 366 1.0
413 457 -1.0
413 619 1.0
414 368 1.0
414 458 -1.0
414 620 1.0
415 376 1.0
415 459 -1.0
415 621 1.0
416 378 1.0
416 460 -1.0
416 622 1.0
417 386 1.0
417 447 -1.0
417 623 1.0
418 388 1.0
418 449 -1.0
418 624 1.0
419 396 1.0
419 451 -1.0
419 625 1.0
420 398 1.0
420 452 -1.0
420 626 1.0
421 406 1.0
421 453 -1.0
421 627 1.0
422 408 1.0
422 454 -1.0
422 628 1.0
423 416 1.0
423 455 -1.0
423 629 1.0
424 418 1.0
424 456 -1.0
424 630 1.0
425 426 1.0
425 457 -1.0
425 631 1.0
426 428 1.0
426 458 -1.0
426 632 1.0
427 436 1.0
427 459 -1.0
427 633 1.0
428 438 1.0
428 460 -1.0
428 634 1.0
429 267 1.0
430 269 1.0
431 270 1.0
432 271 1.0
433 272 1.0
434 273 1.0
435 274 1.0
436 275 1.0
437 277 1.0
438 279 1.0
439 280 1.0
440 281 1.0
441 282 1.0
442 283 1.0
443 284 1.0
444 285 1.0
445 287 1.0
446 289 1.0
447 290 1.0
448 291 1.0
449 292 1.0
450 293 1.0
451 294 1.0
452 295 1.0
453 297 1.0
454 299 1.0
455 300 1.0
456 301 1.0
457 302 1.0
458 303 1.0
459 304 1.0
460 305 1.0
461 307 1.0
462 309 1.0
463 310 1.0
464 311 1.0
465 312 1.0
466 313 1.0
467 314 1.0
468 315 1.0
469 317 1.0
470 319 1.0
471 320 1.0
472 321 1.0
473 322 1.0
474 323 1.0
475 324 1.0
476 325 1.0
477 327 1.0
478 329 1.0
479 330 1.0
480 331 1.0
481 332 1.0
482 333 1.0
483 334 1.0
484 335 1.0
485 337 1.0
486 339 1.0
487 340 1.0
488 341 1.0
489 342 1.0
490 343 1.0
491 344 1.0
492 345 1.0
493 347 1.0
494 349 1.0
495 350 1.0
496 351 1.0
497 352 1.0
498 353 1.0
499 354 1.0
500 355 1.0
501 357 1.0
502 359 1.0
503 360 1.0
504 361 1.0
505 362 1.0
506 363 1.0
507 364 1.0
508 365 1.0
509 367 1.0
510 369 1.0
511 370 1.0
512 371 1.0
513 372 1.0
514 373 1.0
515 374 1.0
516 375 1.0
517 377 1.0
518 379 1.0
519 380 1.0
520 381 1.0
521 382 1.0
522 383 1.0
523 384 1.0
524 385 1.0
525 387 1.0
526 389 1.0
527 390 1.0
528 391 1.0
529 392 1.0
530 393 1.0
531 394 1.0
532 395 1.0
533 397 1.0
534 399 1.0
535 400 1.0
536 401 1.0
537 402 1.0
538 403 1.0
539 404 1.0
540 405 1.0
541 407 1.0
542 409 1.0
543 410 1.0
544 411 1.0
545 412 1.0
546 413 1.0
547 414 1.0
548 415 1.0
549 417 1.0
550 419 1.0
551 420 1.0
552 421 1.0
553 422 1.0
554 423 1.0
555 424 1.0
556 425 1.0
557 427 1.0
558 429 1.0
559 430 1.0
560 431 1.0
561 432 1.0
562 433 1.0
563 434 1.0
564 435 1.0
565 437 1.0
566 439 1.0
567 440 1.0
568 441 1.0
569 442 1.0
570 443 1.0
571 444 1.0
572 445 1.0
1.79769313486232E+308 # value for infinity
0.0 # default left-hand-side value
79 # number of non-default left-hand-sides
1 -24.35937859
2 -1.79769313486232E+308
3 -1.79769313486232E+308
4 -1.79769313486232E+308
5 -1.79769313486232E+308
6 -1.79769313486232E+308
7 -1.79769313486232E+308
8 -1.79769313486232E+308
9 -1.79769313486232E+308
10 -1.79769313486232E+308
11 -1.79769313486232E+308
12 -1.79769313486232E+308
13 -1.79769313486232E+308
14 -1.79769313486232E+308
15 -1.79769313486232E+308
16 -1.79769313486232E+308
17 -1.79769313486232E+308
18 -1.79769313486232E+308
19 -1.79769313486232E+308
20 -1.79769313486232E+308
21 -1.79769313486232E+308
22 -1.79769313486232E+308
23 -1.79769313486232E+308
24 -1.79769313486232E+308
25 -1.79769313486232E+308
26 -1.79769313486232E+308
27 -1.79769313486232E+308
28 -1.79769313486232E+308
29 -1.79769313486232E+308
30 -1.79769313486232E+308
31 -1.79769313486232E+308
32 -1.79769313486232E+308
33 -1.79769313486232E+308
34 -1.79769313486232E+308
35 -1.79769313486232E+308
36 -1.79769313486232E+308
37 -1.79769313486232E+308
573 3.24
574 4.0
575 8.41
576 6.25
577 2.89
578 1.96
579 5.29
580 3.61
581 1.21
582 6.25
583 4.41
584 1.69
585 9.0
586 4.84
587 3.24
588 0.25
589 1.0
590 0.16
591 0.64
592 1.0
593 0.09
594 1.0
595 1.0
596 1.0
597 1.0
598 1.0
599 1.0
600 1.0
601 1.0
602 1.0
603 1.0
604 1.0
605 1.0
606 1.0
607 1.0
608 1.0
609 1.0
610 1.0
611 1.0
612 1.0
613 1.0
614 1.0
0.0 # default right-hand-side value
55 # number of non-default right-hand-sides
1 -24.35937859
2 -1.2
3 -1.2
4 -0.6
5 -0.6
6 -0.8
7 -0.8
8 -1.7
9 -1.7
10 -1.3
11 -1.3
12 -0.5
13 -0.5
573 1.79769313486232E+308
574 1.79769313486232E+308
575 1.79769313486232E+308
576 1.79769313486232E+308
577 1.79769313486232E+308
578 1.79769313486232E+308
579 1.79769313486232E+308
580 1.79769313486232E+308
581 1.79769313486232E+308
582 1.79769313486232E+308
583 1.79769313486232E+308
584 1.79769313486232E+308
585 1.79769313486232E+308
586 1.79769313486232E+308
587 1.79769313486232E+308
588 0.25
589 1.0
590 0.16
591 0.64
592 1.0
593 0.09
594 1.0
595 1.0
596 1.0
597 1.0
598 1.0
599 1.0
600 1.0
601 1.0
602 1.0
603 1.0
604 1.0
605 1.0
606 1.0
607 1.0
608 1.0
609 1.0
610 1.0
611 1.0
612 1.0
613 1.0
614 1.0
-9.848857802 # default variable lower bound value
340 # number of non-default variable lower bounds
1 0.0
2 0.0
3 0.0
4 0.0
5 0.0
6 0.0
7 0.0
8 0.0
9 0.0
10 0.0
11 0.0
12 0.0
13 0.0
14 0.0
15 0.0
16 0.0
17 0.0
18 0.0
19 0.0
20 0.0
21 0.0
22 0.0
23 0.0
24 0.0
49 0.0
50 0.0
51 0.0
52 0.0
53 0.0
54 0.0
55 0.0
56 0.0
57 0.0
58 0.0
59 0.0
60 0.0
61 0.0
62 0.0
63 0.0
64 0.0
65 0.0
66 0.0
67 0.0
68 0.0
69 0.0
70 0.0
71 0.0
72 0.0
73 0.0
74 0.0
75 0.0
76 0.0
77 0.0
78 0.0
79 0.0
80 0.0
81 0.0
82 0.0
83 0.0
84 0.0
85 0.0
86 0.0
87 0.0
88 0.0
89 0.0
90 0.0
91 0.0
92 0.0
93 0.0
94 0.0
95 0.0
96 0.0
97 0.0
98 0.0
99 0.0
100 0.0
101 0.0
102 0.0
103 0.0
104 0.0
105 0.0
106 0.0
107 0.0
108 0.0
109 0.0
110 0.0
111 0.0
112 0.0
113 0.0
114 0.0
115 0.0
116 0.0
117 0.0
118 0.0
119 0.0
120 0.0
211 0.0
212 0.0
213 -1.79769313486232E+308
214 0.0
215 -1.79769313486232E+308
216 -1.79769313486232E+308
217 -1.79769313486232E+308
218 -1.79769313486232E+308
219 -1.79769313486232E+308
220 -1.79769313486232E+308
221 -1.79769313486232E+308
222 0.0
223 -1.79769313486232E+308
224 0.0
225 -1.79769313486232E+308
226 -1.79769313486232E+308
227 -1.79769313486232E+308
228 -1.79769313486232E+308
229 -1.79769313486232E+308
230 -1.79769313486232E+308
231 -1.79769313486232E+308
232 0.0
233 -1.79769313486232E+308
234 0.0
235 -1.79769313486232E+308
236 -1.79769313486232E+308
237 -1.79769313486232E+308
238 -1.79769313486232E+308
239 -1.79769313486232E+308
240 -1.79769313486232E+308
241 -1.79769313486232E+308
242 -1.79769313486232E+308
243 -1.79769313486232E+308
244 -1.79769313486232E+308
245 -1.79769313486232E+308
246 -1.79769313486232E+308
247 -1.79769313486232E+308
248 -1.79769313486232E+308
249 -1.79769313486232E+308
250 -1.79769313486232E+308
251 -1.79769313486232E+308
252 -1.79769313486232E+308
253 -1.79769313486232E+308
254 -1.79769313486232E+308
255 -1.79769313486232E+308
256 -1.79769313486232E+308
257 -1.79769313486232E+308
258 -1.79769313486232E+308
259 -1.79769313486232E+308
260 -1.79769313486232E+308
261 -1.79769313486232E+308
262 -1.79769313486232E+308
263 -1.79769313486232E+308
264 -1.79769313486232E+308
265 -1.79769313486232E+308
266 0.0
268 0.0
276 0.0
278 0.0
286 0.0
288 0.0
296 0.0
298 0.0
306 0.0
308 0.0
316 0.0
318 0.0
326 0.0
328 0.0
336 0.0
338 0.0
346 0.0
348 0.0
356 0.0
358 0.0
366 0.0
368 0.0
376 0.0
378 0.0
386 0.0
388 0.0
396 0.0
398 0.0
406 0.0
408 0.0
416 0.0
418 0.0
426 0.0
428 0.0
436 0.0
438 0.0
446 2.89
447 1.2
448 0.0
449 1.2
450 0.0
451 0.6
452 0.6
453 0.8
454 0.8
455 1.7
456 1.7
457 1.3
458 1.3
459 0.5
460 0.5
461 0.0
462 0.0
463 0.0
464 0.0
465 0.0
466 0.0
467 0.0
468 0.0
469 0.0
470 0.0
471 0.0
472 0.0
473 0.0
474 0.0
475 0.0
476 0.0
477 0.0
478 0.0
479 0.0
480 0.0
481 0.0
482 0.0
483 0.0
484 0.0
485 -0.8
486 -0.5
487 -0.8
488 -0.5
489 -0.8
490 -0.5
491 -0.8
492 0.0
493 -0.5
494 0.0
495 -1.0
496 -1.0
497 -1.0
498 -1.0
499 -1.0
500 -1.0
501 -1.0
502 0.0
503 -1.0
504 0.0
505 -0.3
506 -0.4
507 -0.3
508 -0.4
509 -0.3
510 -0.4
511 -0.3
512 0.0
513 -0.4
514 0.0
515 -1.0
516 -1.0
517 -1.0
518 -1.0
519 -1.0
520 -1.0
521 -1.0
522 -1.0
523 -1.0
524 -1.0
525 -1.0
526 -1.0
527 -1.0
528 -1.0
529 -1.0
530 -1.0
531 -1.0
532 -1.0
533 -1.0
534 -1.0
535 -1.0
536 -1.0
537 -1.0
538 -1.0
539 -1.0
540 -1.0
541 -1.0
542 -1.0
543 -1.0
544 -1.0
545 -1.0
546 -1.0
547 -1.0
548 -1.0
549 -1.0
550 -1.0
551 -1.0
552 -1.0
553 -1.0
554 -1.0
555 -1.0
556 -1.0
557 -1.0
558 -1.0
559 -1.0
560 -1.0
561 -1.0
562 -1.0
563 -1.0
564 -1.0
565 -1.0
566 -1.0
567 -1.0
568 -1.0
569 -1.0
570 -1.0
571 -1.0
572 -1.0
573 -1.0
574 -1.0
575 -1.0
576 -1.0
577 -1.0
578 -1.0
579 -1.0
580 -1.0
581 -1.0
582 -1.0
583 -1.0
584 -1.0
585 -1.0
586 -1.0
587 -1.0
588 -1.0
589 -1.0
590 -1.0
591 -1.0
592 -1.0
593 -1.0
594 -1.0
595 -1.0
596 -1.0
597 -1.0
598 -1.0
9.848857802 # default variable upper bound value
196 # number of non-default variable upper bounds
211 36.0
212 9.0
214 4.0
222 9.0
224 4.0
232 9.0
234 4.0
266 9.0
268 4.0
276 9.0
278 4.0
286 9.0
288 4.0
296 9.0
298 4.0
306 9.0
308 4.0
316 9.0
318 4.0
326 9.0
328 4.0
336 9.0
338 4.0
346 9.0
348 4.0
356 9.0
358 4.0
366 9.0
368 4.0
376 9.0
378 4.0
386 9.0
388 4.0
396 9.0
398 4.0
406 9.0
408 4.0
416 9.0
418 4.0
426 9.0
428 4.0
436 9.0
438 4.0
446 36.0
447 4.5
448 9.0
449 2.0
450 4.0
451 8.4
452 3.4
453 8.2
454 3.2
455 7.3
456 2.3
457 7.7
458 2.7
459 8.5
460 3.5
461 9.0
462 4.0
463 9.0
464 4.0
465 9.0
466 4.0
467 9.0
468 4.0
469 9.0
470 4.0
471 9.0
472 4.0
473 9.0
474 4.0
475 9.0
476 4.0
477 9.0
478 4.0
479 9.0
480 4.0
481 9.0
482 4.0
483 9.0
484 4.0
485 0.8
486 0.5
487 0.8
488 0.5
489 0.8
490 0.5
491 0.8
492 9.0
493 0.5
494 4.0
495 1.0
496 1.0
497 1.0
498 1.0
499 1.0
500 1.0
501 1.0
502 9.0
503 1.0
504 4.0
505 0.3
506 0.4
507 0.3
508 0.4
509 0.3
510 0.4
511 0.3
512 9.0
513 0.4
514 4.0
515 1.0
516 1.0
517 1.0
518 1.0
519 1.0
520 1.0
521 1.0
522 1.0
523 1.0
524 1.0
525 1.0
526 1.0
527 1.0
528 1.0
529 1.0
530 1.0
531 1.0
532 1.0
533 1.0
534 1.0
535 1.0
536 1.0
537 1.0
538 1.0
539 1.0
540 1.0
541 1.0
542 1.0
543 1.0
544 1.0
545 1.0
546 1.0
547 1.0
548 1.0
549 1.0
550 1.0
551 1.0
552 1.0
553 1.0
554 1.0
555 1.0
556 1.0
557 1.0
558 1.0
559 1.0
560 1.0
561 1.0
562 1.0
563 1.0
564 1.0
565 1.0
566 1.0
567 1.0
568 1.0
569 1.0
570 1.0
571 1.0
572 1.0
573 1.0
574 1.0
575 1.0
576 1.0
577 1.0
578 1.0
579 1.0
580 1.0
581 1.0
582 1.0
583 1.0
584 1.0
585 1.0
586 1.0
587 1.0
588 1.0
589 1.0
590 1.0
591 1.0
592 1.0
593 1.0
594 1.0
595 1.0
596 1.0
597 1.0
598 1.0
0.0 # default variable primal value in starting point
13 # number of non-default variable primal values in starting point
446 2.89
447 1.2
449 1.2
451 0.6
452 0.6
453 0.8
454 0.8
455 1.7
456 1.7
457 1.3
458 1.3
459 0.5
460 0.5
0.0 # default constraint dual value in starting point
0 # number of non-default constraint dual values in starting point
0.0 # default variable bound dual value in starting point
0 # number of non-default variable bound dual values in starting point
0 # number of non-default variable names
0 # number of non-default constraint names
